proyfinal/src/viki/013/experimentInOfficeAgust.take6.output/32104a2e-2c4c-402a-8086-017c9ab80063.als.dat
{'cnf.clauses': '118081',
 'cnf.totvars': '69608',
 'conflict literals': '1',
 'conflicts': '2',
 'decisions': '768',
 'memused.mb': '16.73',
 'outcome': 'UNSAT',
 'propagations': '19260',
 'restarts': '1',
 'solver.msecs': 34,
 'task.msecs': 87}
