proyfinal/src/viki/013/experimentInOfficeAgust.take6.output/32104a2e-2c4c-402a-8086-017c9ab80063.als.out
Reading from standard input... Use '--help' for help.
============================[ Problem Statistics ]=============================
|                                                                             |
|  Number of variables:         69608                                         |
|  Number of clauses:          118081                                         |
|  Parse time:                   0.03 s                                       |
|                                                                             |
============================[ Search Statistics ]==============================
| Conflicts |          ORIGINAL         |          LEARNT          | Progress |
|           |    Vars  Clauses Literals |    Limit  Clauses Lit/Cl |          |
===============================================================================
===============================================================================
restarts              : 1
conflicts             : 2              (58 /sec)
decisions             : 768            (0.00 % random) (22238 /sec)
propagations          : 19260          (557679 /sec)
conflict literals     : 1              (0.00 % deleted)
Memory used           : 16.73 MB
CPU time              : 0.034536 s

UNSATISFIABLE
